# rock paper scissors, Karlin/Peres p. 147

param m := 2;

param n := 2;

# player 1
param a :   1     2 :=
      1     3     5
      2     4     2;

# player 2
param b :   1     2 :=
      1     3     4
      2     5     2;

end;